4 11
38 31
3 141
19 100
18 160
5 65
46 33
37 1
22 95
27 127
11 158
72 24
12 9
1 54
13 63
23 121
9 162
15 181
100 34
21 127
43 28
24 97
18 36
7 125
28 133
4 115
10 19
24 137
77 42
78 48
21 56
66 48
35 31
31 54
82 64
90 9
35 9
7 33
2 99
38 141
14 109
84 51
47 18
7 77
18 189
34 79
5 14
54 92
99 40
2 56
78 68
94 8
2 7
38 56
82 7
26 27
72 49
28 76
62 47
37 64
44 4
9 137
1 134
15 50
23 30
4 39
23 74
42 86
3 117
69 4
83 14
46 107
20 180
91 27
20 19
29 31
6 70
21 120
88 21
18 161
46 14
26 2
15 144
5 9
83 31
40 123
17 64
73 66
59 13
37 117
98 18
58 26
49 30
30 16
29 139
9 140
60 55
82 1
89 43
27 45
